30
50
8 12 15 17 21 
8 10 14 22 30 
6 8 17 19 27 
2 9 11 22 28 
7 10 16 17 29 
8 9 17 25 29 
6 9 11 24 29 
1 2 9 12 23 
8 11 14 16 27 
3 6 11 12 20 
4 22 25 26 27 
1 2 8 18 24 
9 11 15 16 22 
7 8 11 16 29 
10 11 12 22 28 
6 18 19 28 30 
18 19 24 28 29 
2 13 18 19 29 
2 7 8 9 23 
15 17 20 24 25 
1 
2 
3 
4 
5 
6 
7 
8 
9 
10 
11 
12 
13 
14 
15 
16 
17 
18 
19 
20 
21 
22 
23 
24 
25 
26 
27 
28 
29 
30 
